18635717065786883503,10,1,2,05,8,1,2,010,12,1,2,015,10,1,2,015,15,1,2,08,9,1,2,014,5,1,2,08,13,1,2,01,10,1,2,013,9,1,2,08,8,1,2,08,2,1,2,05,6,1,2,06,14,1,2,04,4,1,2,015,7,1,2,06,8,1,2,04,2,1,2,01,2,1,2,015,5,1,2,012,2,1,2,08,9,1,2,015,10,1,2,08,9,1,2,015,4,1,2,014,8,1,2,09,13,1,2,011,9,1,2,03,10,1,2,03,15,1,2,07,5,1,2,013,13,1,2,012,1,1,2,014,4,1,2,015,12,1,2,011,11,1,2,010,3,1,2,03,12,1,2,02,3,1,2,014,1,1,2,03,5,1,2,03,5,1,2,05,12,1,2,03,5,1,2,015,6,1,2,013,7,1,2,03,15,1,2,07,1,1,2,03,7,1,2,07,9,1,2,0